c Created with the Wolfram Language : www.wolfram.com
c 
p edge 70 253
e 1 2
e 2 5
e 3 7
e 2 8
e 2 9
e 3 9
e 4 9
e 5 11
e 10 11
e 11 13
e 12 14
e 2 15
e 8 15
e 9 15
e 10 15
e 12 15
e 3 16
e 13 16
e 14 17
e 8 18
e 12 18
e 6 19
e 14 19
e 16 19
e 11 20
e 14 20
e 19 20
e 20 21
e 5 22
e 12 22
e 17 22
e 19 22
e 5 23
e 6 23
e 3 24
e 7 24
e 13 24
e 15 24
e 8 25
e 19 27
e 25 27
e 3 28
e 4 28
e 11 28
e 13 28
e 16 28
e 27 28
e 2 29
e 9 29
e 14 29
e 16 29
e 26 29
e 1 30
e 5 30
e 6 31
e 17 31
e 16 32
e 25 32
e 1 33
e 3 33
e 8 33
e 13 33
e 22 33
e 30 33
e 3 34
e 18 34
e 15 35
e 19 35
e 20 35
e 21 35
e 29 35
e 34 35
e 13 36
e 15 36
e 24 36
e 34 36
e 3 37
e 5 37
e 25 37
e 5 38
e 8 38
e 14 38
e 20 38
e 26 38
e 35 39
e 5 40
e 8 40
e 10 40
e 6 41
e 3 42
e 5 42
e 32 42
e 33 42
e 36 42
e 3 43
e 19 43
e 41 43
e 12 44
e 23 44
e 27 44
e 32 44
e 36 44
e 8 45
e 17 45
e 24 45
e 25 45
e 25 46
e 32 46
e 35 46
e 41 46
e 17 47
e 18 47
e 20 47
e 24 47
e 29 47
e 33 47
e 34 47
e 1 48
e 7 48
e 16 48
e 22 48
e 28 48
e 39 48
e 3 49
e 8 49
e 18 49
e 19 49
e 21 49
e 22 49
e 40 49
e 42 49
e 43 49
e 5 50
e 9 50
e 14 50
e 24 50
e 26 50
e 28 50
e 40 50
e 49 50
e 12 51
e 35 51
e 45 51
e 32 52
e 35 52
e 36 52
e 49 52
e 50 52
e 12 53
e 15 53
e 16 53
e 19 53
e 47 53
e 52 53
e 7 54
e 9 54
e 16 54
e 26 54
e 30 54
e 40 54
e 43 54
e 20 55
e 23 55
e 29 55
e 38 55
e 1 56
e 21 56
e 26 56
e 27 56
e 29 56
e 54 56
e 5 57
e 8 57
e 11 57
e 19 57
e 32 57
e 43 57
e 44 57
e 49 57
e 27 58
e 35 58
e 36 58
e 40 58
e 15 59
e 28 59
e 29 59
e 31 59
e 2 60
e 9 60
e 33 60
e 40 60
e 47 60
e 51 60
e 9 61
e 13 61
e 9 62
e 15 62
e 18 62
e 30 62
e 50 62
e 53 62
e 38 63
e 48 63
e 56 63
e 58 63
e 1 64
e 20 64
e 27 64
e 34 64
e 38 64
e 41 64
e 47 64
e 49 64
e 50 64
e 10 65
e 13 65
e 30 65
e 39 65
e 41 65
e 42 65
e 43 65
e 50 65
e 57 65
e 2 66
e 20 66
e 24 67
e 28 67
e 43 67
e 50 67
e 60 67
e 2 68
e 4 68
e 24 68
e 29 68
e 36 68
e 52 68
e 54 68
e 7 69
e 22 69
e 52 69
e 53 69
e 58 69
e 5 70
e 8 70
e 19 70
e 22 70
e 26 70
e 36 70
e 38 70
e 47 70
e 54 70
e 55 70
e 64 70
